num_servers = 6;
sid = [0, 1, 2, 3, 4, 5];
scpu = [10, 2, 10, 5, 5, 10];
sram = [100, 24, 100, 30, 12, 50];

num_vms = 25;
vjob = [0, 1, 2, 3, 3, 4, 5, 5, 5, 5, 5, 6, 7, 7, 7, 8, 8, 9, 9, 10, 11, 12, 13, 14, 14];
vindex = [0, 0, 0, 0, 1, 0, 0, 1, 2, 3, 4, 0, 0, 1, 2, 0, 1, 0, 1, 0, 0, 0, 0, 0, 1];
vcpu = [1, 1, 1, 1, 1, 1, 1, 1, 1, 1, 1, 1, 1, 1, 1, 1, 1, 1, 1, 1, 1, 1, 1, 1, 1];
vram = [1, 1, 1, 1, 1, 1, 1, 1, 1, 1, 1, 1, 1, 1, 1, 1, 1, 1, 1, 1, 1, 1, 1, 1, 1];
vac = [true, true, true, true, true, true, true, true, true, true, true, true, true, true, true, true, true, true, true, true, true, true, true, true, true];
